NAME 
ROWS
 N  OBJ
 L  R0      
 L  R1      
 L  R2      
 E  R3      
 E  R4      
 E  R5      
 E  R6      
 E  R7      
 E  R8      
 E  R9      
 E  R10     
 E  R11     
 E  R12     
 E  R13     
 E  R14     
 E  R15     
 E  R16     
 E  R17     
COLUMNS
    MARKER    'MARKER'                 'INTORG'
    I0(10)    OBJ       -25
    I0(10)    R0        -103
    I0(10)    R1        122
    I0(10)    R2        159
    I0(10)    R5        8
    I0(10)    R6        13
    I0(10)    R7        16
    I0(10)    R8        -1
    I0(10)    R9        10
    I0(10)    R11       4
    I0(10)    R17       1
    I1(11)    OBJ       -103
    I1(11)    R0        -179
    I1(11)    R1        -188
    I1(11)    R2        -110
    I1(11)    R4        19
    I1(11)    R5        1
    I1(11)    R7        -1
    I1(11)    R8        8
    I1(11)    R9        8
    I1(11)    R10       14
    I1(11)    R11       18
    I1(11)    R17       1
    I2(11)    OBJ       98
    I2(11)    R0        -177
    I2(11)    R1        80
    I2(11)    R2        153
    I2(11)    R5        19
    I2(11)    R6        1
    I2(11)    R7        11
    I2(11)    R8        16
    I2(11)    R9        18
    I2(11)    R10       11
    I2(11)    R11       8
    I2(11)    R17       1
    I3(11)    OBJ       -186
    I3(11)    R0        77
    I3(11)    R1        100
    I3(11)    R2        153
    I3(11)    R4        14
    I3(11)    R5        18
    I3(11)    R7        1
    I3(11)    R8        4
    I3(11)    R9        3
    I3(11)    R10       10
    I3(11)    R11       8
    I3(11)    R17       1
    I4(11)    OBJ       -2
    I4(11)    R0        50
    I4(11)    R1        -40
    I4(11)    R2        92
    I4(11)    R3        10
    I4(11)    R4        7
    I4(11)    R5        11
    I4(11)    R6        16
    I4(11)    R7        16
    I4(11)    R9        12
    I4(11)    R11       12
    I4(11)    R17       1
    I5(11)    OBJ       137
    I5(11)    R0        -82
    I5(11)    R1        -27
    I5(11)    R2        -69
    I5(11)    R3        12
    I5(11)    R4        6
    I5(11)    R6        9
    I5(11)    R7        11
    I5(11)    R8        16
    I5(11)    R10       15
    I5(11)    R11       3
    I5(11)    R17       1
    I6(11)    OBJ       -137
    I6(11)    R0        -149
    I6(11)    R1        162
    I6(11)    R2        189
    I6(11)    R3        13
    I6(11)    R4        14
    I6(11)    R5        19
    I6(11)    R6        8
    I6(11)    R7        1
    I6(11)    R8        10
    I6(11)    R10       5
    I6(11)    R17       1
    I7(10)    OBJ       -37
    I7(10)    R0        60
    I7(10)    R1        99
    I7(10)    R2        2
    I7(10)    R3        3
    I7(10)    R4        14
    I7(10)    R8        1
    I7(10)    R9        10
    I7(10)    R10       7
    I7(10)    R11       9
    I7(10)    R17       1
    I8(10)    OBJ       60
    I8(10)    R0        194
    I8(10)    R1        7
    I8(10)    R2        -9
    I8(10)    R3        19
    I8(10)    R6        15
    I8(10)    R7        8
    I8(10)    R8        13
    I8(10)    R9        16
    I8(10)    R10       12
    I8(10)    R17       1
    MARKER    'MARKER'                 'INTEND'
    C9(12)    OBJ       -10
    C9(12)    R0        5
    C9(12)    R2        4
    C9(12)    R4        17
    C9(12)    R6        9
    C9(12)    R7        6
    C9(12)    R8        3
    C9(12)    R9        16
    C9(12)    R10       17
    C9(12)    R11       15
    C9(12)    R12       12
    C9(12)    R14       4
    C9(12)    R16       9
    C10(14)   OBJ       7
    C10(14)   R0        -5
    C10(14)   R1        7
    C10(14)   R2        7
    C10(14)   R3        18
    C10(14)   R5        15
    C10(14)   R6        5
    C10(14)   R8        9
    C10(14)   R9        5
    C10(14)   R10       8
    C10(14)   R11       18
    C10(14)   R12       1
    C10(14)   R13       1
    C10(14)   R14       7
    C10(14)   R15       14
    C11(14)   OBJ       -8
    C11(14)   R0        -9
    C11(14)   R1        -8
    C11(14)   R2        1
    C11(14)   R3        4
    C11(14)   R4        3
    C11(14)   R5        2
    C11(14)   R6        19
    C11(14)   R7        18
    C11(14)   R9        14
    C11(14)   R10       19
    C11(14)   R12       10
    C11(14)   R13       7
    C11(14)   R15       1
    C11(14)   R16       1
    C12(13)   OBJ       5
    C12(13)   R0        5
    C12(13)   R1        9
    C12(13)   R2        -2
    C12(13)   R3        1
    C12(13)   R4        13
    C12(13)   R5        14
    C12(13)   R6        18
    C12(13)   R7        9
    C12(13)   R8        1
    C12(13)   R9        12
    C12(13)   R12       7
    C12(13)   R13       19
    C12(13)   R16       16
    C13(13)   OBJ       -8
    C13(13)   R0        8
    C13(13)   R1        -3
    C13(13)   R2        -4
    C13(13)   R3        15
    C13(13)   R4        17
    C13(13)   R6        7
    C13(13)   R7        6
    C13(13)   R9        5
    C13(13)   R10       9
    C13(13)   R11       4
    C13(13)   R12       1
    C13(13)   R13       16
    C13(13)   R14       9
    C14(17)   OBJ       2
    C14(17)   R0        -6
    C14(17)   R1        -8
    C14(17)   R2        1
    C14(17)   R3        18
    C14(17)   R4        15
    C14(17)   R5        12
    C14(17)   R6        17
    C14(17)   R7        16
    C14(17)   R8        7
    C14(17)   R9        12
    C14(17)   R10       9
    C14(17)   R11       11
    C14(17)   R12       10
    C14(17)   R13       2
    C14(17)   R14       8
    C14(17)   R15       13
    C14(17)   R16       4
    C15(1)    R3        1
    C16(1)    R4        1
    C17(1)    R5        1
    C18(1)    R6        1
    C19(1)    R7        1
    C20(1)    R8        1
    C21(1)    R9        1
    C22(1)    R10       1
    C23(1)    R11       1
    C24(1)    R12       1
    C25(1)    R13       1
    C26(1)    R14       1
    C27(1)    R15       1
    C28(1)    R16       1
    C29(1)    R17       1
RHS
    RHS1      R0        -1.4351351351351356e+01
    RHS1      R1        3.7027027027027017e+00
    RHS1      R2        1.8935135135135135e+02
    RHS1      R3        90
    RHS1      R4        78
    RHS1      R5        54
    RHS1      R6        98
    RHS1      R7        52
    RHS1      R8        83
    RHS1      R9        95
    RHS1      R10       57
    RHS1      R11       68
    RHS1      R12       64
    RHS1      R13       69
    RHS1      R14       62
    RHS1      R15       62
    RHS1      R16       54
    RHS1      R17       3
BOUNDS
 UP BND1      I0(10)    2
 UP BND1      I1(11)    2
 UP BND1      I2(11)    2
 UP BND1      I3(11)    2
 UP BND1      I4(11)    2
 UP BND1      I5(11)    2
 UP BND1      I6(11)    2
 UP BND1      I7(10)    2
 UP BND1      I8(10)    2
ENDATA
